7052881484636099635507,9,1,2,015,3,1,2,03,2,1,2,09,4,1,2,08,10,1,2,011,10,1,2,013,2,1,2,09,14,1,2,09,9,1,2,04,7,1,2,010,12,1,2,012,2,1,2,02,4,1,2,02,15,1,2,010,14,1,2,013,6,1,2,010,5,1,2,05,7,1,2,02,9,1,2,08,7,1,2,04,9,1,2,09,2,1,2,013,15,1,2,014,3,1,2,014,15,1,2,04,13,1,2,014,14,1,2,07,3,1,2,08,8,1,2,07,1,1,2,01,7,1,2,014,1,1,2,08,4,1,2,06,8,1,2,07,1,1,2,09,12,1,2,010,7,1,2,014,13,1,2,04,4,1,2,014,9,1,2,011,14,1,2,03,4,1,2,014,8,1,2,03,9,1,2,014,11,1,2,012,6,1,2,02,9,1,2,013,15,1,2,07,7,1,2,010,3,1,2,0